25
2 1 204
3 1 811
3 2 370
4 1 14
4 2 170
4 3 543
5 1 549
5 2 631
5 3 191
5 4 254
6 1 966
6 2 910
6 3 897
6 4 845
6 5 974
7 1 207
7 2 506
7 3 182
7 4 609
7 5 685
7 6 950
8 1 823
8 2 806
8 3 976
8 4 41
8 5 973
8 6 672
8 7 596
9 1 260
9 2 304
9 3 494
9 4 886
9 5 981
9 6 511
9 7 439
9 8 468
10 1 194
10 2 744
10 3 133
10 4 487
10 5 44
10 6 279
10 7 554
10 8 131
10 9 755
11 1 68
11 2 936
11 3 178
11 4 755
11 5 51
11 6 632
11 7 596
11 8 63
11 9 341
11 10 108
12 1 422
12 2 262
12 3 681
12 4 536
12 5 444
12 6 621
12 7 793
12 8 646
12 9 434
12 10 179
12 11 490
13 1 811
13 2 935
13 3 867
13 4 697
13 5 532
13 6 851
13 7 969
13 8 746
13 9 775
13 10 353
13 11 510
13 12 582
14 1 851
14 2 857
14 3 361
14 4 751
14 5 775
14 6 58
14 7 155
14 8 306
14 9 306
14 10 301
14 11 304
14 12 14
14 13 98
15 1 772
15 2 708
15 3 471
15 4 657
15 5 271
15 6 950
15 7 35
15 8 51
15 9 579
15 10 67
15 11 682
15 12 557
15 13 649
15 14 182
16 1 173
16 2 690
16 3 157
16 4 603
16 5 163
16 6 307
16 7 137
16 8 167
16 9 123
16 10 718
16 11 726
16 12 922
16 13 214
16 14 15
16 15 258
17 1 451
17 2 484
17 3 35
17 4 219
17 5 409
17 6 17
17 7 673
17 8 821
17 9 87
17 10 924
17 11 461
17 12 179
17 13 67
17 14 287
17 15 635
17 16 372
18 1 296
18 2 450
18 3 102
18 4 873
18 5 130
18 6 279
18 7 14
18 8 107
18 9 171
18 10 269
18 11 892
18 12 139
18 13 970
18 14 632
18 15 480
18 16 760
18 17 902
19 1 744
19 2 784
19 3 443
19 4 783
19 5 570
19 6 976
19 7 967
19 8 51
19 9 961
19 10 109
19 11 667
19 12 565
19 13 943
19 14 840
19 15 601
19 16 353
19 17 377
19 18 588
20 1 117
20 2 868
20 3 621
20 4 838
20 5 578
20 6 558
20 7 76
20 8 512
20 9 255
20 10 846
20 11 734
20 12 611
20 13 635
20 14 800
20 15 122
20 16 572
20 17 650
20 18 85
20 19 258
21 1 20
21 2 585
21 3 9
21 4 505
21 5 863
21 6 658
21 7 715
21 8 451
21 9 921
21 10 543
21 11 856
21 12 190
21 13 533
21 14 319
21 15 309
21 16 637
21 17 828
21 18 620
21 19 733
21 20 757
22 1 604
22 2 976
22 3 70
22 4 832
22 5 6
22 6 599
22 7 265
22 8 147
22 9 448
22 10 126
22 11 802
22 12 728
22 13 459
22 14 71
22 15 861
22 16 1
22 17 419
22 18 979
22 19 159
22 20 515
22 21 337
23 1 556
23 2 800
23 3 94
23 4 158
23 5 254
23 6 691
23 7 56
23 8 250
23 9 91
23 10 350
23 11 372
23 12 44
23 13 688
23 14 166
23 15 904
23 16 993
23 17 789
23 18 425
23 19 84
23 20 313
23 21 770
23 22 681
24 1 679
24 2 179
24 3 874
24 4 272
24 5 512
24 6 335
24 7 202
24 8 59
24 9 274
24 10 288
24 11 688
24 12 701
24 13 797
24 14 553
24 15 578
24 16 29
24 17 428
24 18 618
24 19 166
24 20 343
24 21 369
24 22 580
24 23 783
